n_res = 4;
rc = [ 10, 11, 9, 12 ];
n_tasks = 30;
d = [ 9, 7, 1, 10, 8, 8, 2, 7, 3, 6, 1, 10, 9, 7, 7, 6, 5, 8, 5, 1, 4, 2, 6, 4, 3, 7, 10, 7, 4, 10 ];
rr = [| 0, 0, 0, 0, 0, 0, 0, 10, 0, 0, 0, 0, 1, 0, 0, 0, 5, 0, 0, 0, 4, 0, 0, 1, 0, 0, 4, 4, 6, 0
      | 0, 6, 5, 5, 0, 0, 6, 0, 8, 0, 7, 0, 0, 6, 0, 9, 0, 0, 0, 8, 0, 0, 0, 0, 0, 0, 0, 0, 0, 0
      | 6, 0, 0, 0, 1, 1, 0, 0, 0, 0, 0, 0, 0, 0, 7, 0, 0, 3, 0, 0, 0, 0, 0, 0, 4, 0, 0, 0, 0, 8
      | 0, 0, 0, 0, 0, 0, 0, 0, 0, 10, 0, 10, 0, 0, 0, 0, 0, 0, 2, 0, 0, 8, 10, 0, 0, 3, 0, 0, 0, 0 |];
suc = [ { 2 }, 
        { 3 }, 
        { 4 }, 
        { 5 }, 
        { 6 }, 
        { 7 }, 
        { 8 }, 
        { 9 }, 
        { 10 }, 
        { 11 }, 
        { 12 }, 
        { 13 }, 
        { 14 }, 
        { 15 }, 
        { 16 }, 
        { 17 }, 
        { 18 }, 
        { 19 }, 
        { 20 }, 
        { 21 }, 
        { 22 }, 
        { 23 }, 
        { 24 }, 
        { 25 }, 
        { 26 }, 
        { 27 }, 
        { 28 }, 
        { 29 }, 
        { 30 }, 
        {  }]; 
